81 91400
8 46 28 16 64 76 54 53 60 72 52 42 71 13 75 79 10 47 57 68 1 5 43 32 58 24 77 22 45 62 59 73 37 12 63 35 27 78 7 44 18 51 20 39 80 29 31 41 70 15 19 49 38 23 55 56 36 11 2 26 14 4 40 9 17 6 21 33 34 81 69 67 66 48 50 3 61 74 65 25 30 
